(declare-sort $$unsorted 0)
(declare-fun tptp.op ($$unsorted $$unsorted) $$unsorted)
(assert (forall ((X0 $$unsorted) (X1 $$unsorted)) (= X0 (tptp.op X1 (tptp.op (tptp.op X1 X1) X0)))))
(assert (not (forall ((X0 $$unsorted) (X1 $$unsorted)) (= X0 (tptp.op (tptp.op X1 X1) (tptp.op X1 X0))))))
(set-info :filename Equation127_implies_Equation179)
(check-sat-assuming ( true ))
